SDVRP instances/custom_instances/p02_17_split0.vrp
NAME:p02_17_split
BEST_KNOWN: 0
COMMENT: 0
DIMENSION: 383
CAPACITY: 140
EDGE_WEIGHT_FORMAT: FUNCTION
EDGE_WEIGHT_TYPE: EXACT_2D
NODE_COORD_SECTION
1 0.00000 0.00000
2 50 -38
3 50 -38
4 50 -38
5 29 2
6 29 2
7 29 2
8 29 2
9 29 2
10 29 2
11 29 2
12 29 2
13 29 2
14 -17 -22
15 -17 -22
16 -17 -22
17 -17 -22
18 -17 -22
19 -17 -22
20 27 40
21 25 37
22 25 37
23 25 37
24 -3 28
25 -3 28
26 -3 28
27 -3 28
28 -3 28
29 -4 8
30 -4 8
31 -4 8
32 -4 8
33 -4 8
34 -4 8
35 -4 8
36 -35 24
37 -35 24
38 -35 24
39 -35 24
40 -35 24
41 -35 24
42 38 3
43 38 3
44 -6 -8
45 -6 -8
46 -6 -8
47 -6 -8
48 -6 -8
49 -6 -8
50 -6 -8
51 -6 -30
52 -6 -30
53 -6 -30
54 7 -12
55 7 -12
56 7 -12
57 7 -12
58 7 -12
59 22 -16
60 -2 16
61 -2 16
62 -2 16
63 -2 16
64 -2 16
65 -2 16
66 -2 16
67 -2 16
68 42 25
69 42 25
70 42 25
71 42 25
72 42 25
73 42 25
74 42 25
75 -21 -29
76 -21 -29
77 -21 -29
78 -21 -29
79 -21 -29
80 -21 -29
81 -21 -29
82 -21 -29
83 50 -16
84 50 -16
85 50 -16
86 50 -16
87 50 -16
88 2 37
89 2 37
90 2 37
91 2 37
92 2 37
93 2 37
94 2 37
95 2 30
96 2 30
97 2 30
98 2 30
99 2 30
100 2 30
101 42 -42
102 42 -42
103 42 -42
104 42 -42
105 42 -42
106 34 32
107 34 32
108 34 32
109 -50 20
110 -50 20
111 -50 20
112 -50 20
113 -50 20
114 -50 20
115 -50 20
116 -29 23
117 -29 23
118 -29 23
119 38 -9
120 38 -9
121 38 -9
122 38 -9
123 38 -9
124 38 -9
125 38 -9
126 38 -9
127 38 -9
128 -33 -36
129 -33 -36
130 -33 -36
131 -33 -36
132 -6 26
133 -6 26
134 -6 26
135 -6 26
136 -6 26
137 -6 26
138 -18 -42
139 -18 -42
140 -18 -42
141 -18 -42
142 -18 -42
143 -18 -42
144 -18 -42
145 -18 -42
146 23 -37
147 23 -37
148 23 -37
149 23 -37
150 23 -37
151 23 -37
152 23 -37
153 -42 6
154 -42 6
155 -42 6
156 -42 6
157 31 21
158 31 21
159 31 21
160 31 21
161 31 21
162 31 21
163 31 21
164 36 18
165 36 18
166 -23 31
167 -23 31
168 -23 31
169 -24 21
170 -24 21
171 -24 21
172 -24 21
173 -24 21
174 -24 21
175 -24 21
176 14 29
177 14 29
178 14 29
179 14 29
180 -16 -49
181 -16 -49
182 -16 -49
183 -16 -49
184 33 24
185 33 24
186 33 24
187 33 24
188 24 27
189 24 27
190 24 27
191 24 27
192 24 27
193 24 27
194 45 -21
195 45 -21
196 45 -21
197 45 -21
198 19 31
199 19 31
200 19 31
201 19 31
202 19 31
203 -12 24
204 -12 24
205 -12 24
206 -12 24
207 -50 21
208 -50 21
209 -50 21
210 20 -28
211 20 -28
212 20 -28
213 20 -28
214 20 -28
215 8 23
216 8 23
217 8 23
218 8 23
219 8 23
220 -23 -31
221 -23 -31
222 -23 -31
223 -23 -31
224 -23 -31
225 -23 -31
226 -17 25
227 -17 25
228 -17 25
229 -17 25
230 -17 25
231 -29 15
232 -29 15
233 -29 15
234 -29 15
235 -29 15
236 -29 15
237 5 38
238 5 38
239 5 38
240 5 38
241 5 38
242 5 38
243 5 38
244 5 38
245 12 -1
246 12 -1
247 12 -1
248 12 -1
249 12 -1
250 12 -1
251 12 -1
252 -1 14
253 -1 14
254 -1 14
255 -1 14
256 -1 14
257 47 -1
258 47 -1
259 47 -1
260 47 -1
261 47 -1
262 47 -1
263 47 -1
264 47 -1
265 43 -13
266 43 -13
267 43 -13
268 43 -13
269 26 -3
270 26 -3
271 26 -3
272 25 13
273 25 13
274 25 13
275 25 13
276 -12 -22
277 -12 -22
278 -12 -22
279 -12 -22
280 -12 -22
281 -12 -22
282 19 16
283 19 16
284 19 16
285 19 16
286 19 16
287 19 16
288 19 16
289 19 16
290 19 16
291 34 -36
292 34 -36
293 34 -36
294 -3 -12
295 -3 -12
296 -3 -12
297 -3 -12
298 -3 -12
299 -3 -12
300 -3 -12
301 23 -22
302 23 -22
303 23 -22
304 23 -22
305 23 -22
306 23 -22
307 23 -22
308 23 -22
309 -37 -11
310 -37 -11
311 -37 -11
312 -37 -11
313 -37 -11
314 -15 16
315 -15 16
316 -15 16
317 -15 16
318 -15 16
319 -15 16
320 -43 -18
321 -43 -18
322 25 -50
323 25 -50
324 25 -50
325 20 38
326 20 38
327 20 38
328 0 -41
329 0 -41
330 0 -41
331 39 1
332 39 1
333 39 1
334 39 1
335 39 1
336 39 1
337 -13 -12
338 -13 -12
339 -13 -12
340 -13 -12
341 37 3
342 37 3
343 37 3
344 17 33
345 17 33
346 17 33
347 17 33
348 17 33
349 17 33
350 17 33
351 17 -48
352 -8 -7
353 -8 -7
354 -8 -7
355 -8 -7
356 -8 -7
357 -24 -42
358 -24 -42
359 -24 -42
360 -24 -42
361 -24 -42
362 25 29
363 25 29
364 25 29
365 25 29
366 25 29
367 -28 -2
368 -28 -2
369 -28 -2
370 -28 -2
371 -28 -2
372 -28 -2
373 46 0
374 46 0
375 46 0
376 41 22
377 41 22
378 41 22
379 41 22
380 41 22
381 41 22
382 41 22
383 41 22
DEMAND_SECTION
1 0
2 28
3 28
4 14
5 28
6 28
7 7
8 1
9 1
10 1
11 1
12 1
13 1
14 28
15 7
16 1
17 1
18 1
19 1
20 28
21 28
22 28
23 7
24 28
25 28
26 1
27 1
28 1
29 28
30 7
31 1
32 1
33 1
34 1
35 1
36 14
37 1
38 1
39 1
40 1
41 1
42 28
43 28
44 28
45 28
46 1
47 1
48 1
49 1
50 1
51 28
52 14
53 7
54 28
55 14
56 7
57 1
58 1
59 28
60 28
61 28
62 1
63 1
64 1
65 1
66 1
67 1
68 28
69 28
70 1
71 1
72 1
73 1
74 1
75 28
76 28
77 1
78 1
79 1
80 1
81 1
82 1
83 28
84 1
85 1
86 1
87 1
88 28
89 28
90 1
91 1
92 1
93 1
94 1
95 28
96 28
97 7
98 1
99 1
100 1
101 28
102 28
103 7
104 1
105 1
106 28
107 14
108 1
109 28
110 14
111 1
112 1
113 1
114 1
115 1
116 28
117 14
118 1
119 28
120 14
121 7
122 1
123 1
124 1
125 1
126 1
127 1
128 14
129 7
130 1
131 1
132 28
133 14
134 1
135 1
136 1
137 1
138 28
139 28
140 1
141 1
142 1
143 1
144 1
145 1
146 28
147 7
148 1
149 1
150 1
151 1
152 1
153 28
154 28
155 7
156 1
157 28
158 1
159 1
160 1
161 1
162 1
163 1
164 28
165 14
166 28
167 28
168 7
169 28
170 28
171 1
172 1
173 1
174 1
175 1
176 28
177 14
178 7
179 1
180 28
181 14
182 1
183 1
184 28
185 28
186 1
187 1
188 28
189 1
190 1
191 1
192 1
193 1
194 14
195 1
196 1
197 1
198 28
199 1
200 1
201 1
202 1
203 28
204 28
205 1
206 1
207 14
208 7
209 1
210 28
211 7
212 1
213 1
214 1
215 28
216 28
217 1
218 1
219 1
220 28
221 14
222 7
223 1
224 1
225 1
226 28
227 14
228 7
229 1
230 1
231 14
232 7
233 1
234 1
235 1
236 1
237 28
238 7
239 1
240 1
241 1
242 1
243 1
244 1
245 14
246 1
247 1
248 1
249 1
250 1
251 1
252 28
253 28
254 7
255 1
256 1
257 28
258 14
259 1
260 1
261 1
262 1
263 1
264 1
265 28
266 1
267 1
268 1
269 28
270 1
271 1
272 28
273 28
274 7
275 1
276 28
277 14
278 7
279 1
280 1
281 1
282 28
283 14
284 7
285 1
286 1
287 1
288 1
289 1
290 1
291 28
292 14
293 7
294 14
295 1
296 1
297 1
298 1
299 1
300 1
301 28
302 14
303 7
304 1
305 1
306 1
307 1
308 1
309 28
310 28
311 1
312 1
313 1
314 28
315 14
316 7
317 1
318 1
319 1
320 28
321 14
322 28
323 14
324 7
325 28
326 7
327 1
328 28
329 14
330 7
331 28
332 7
333 1
334 1
335 1
336 1
337 14
338 1
339 1
340 1
341 28
342 7
343 1
344 28
345 7
346 1
347 1
348 1
349 1
350 1
351 28
352 28
353 7
354 1
355 1
356 1
357 28
358 14
359 1
360 1
361 1
362 28
363 28
364 1
365 1
366 1
367 28
368 7
369 1
370 1
371 1
372 1
373 28
374 1
375 1
376 28
377 28
378 1
379 1
380 1
381 1
382 1
383 1
DEPOT_SECTION
1
-1
EOF