SDVRP instances/custom_instances/p02_17_split0.sol
382 -1 3 2 103 102 100 101 104 -6 7 10 12 8 5 4 9 11 269 270 268 244 250 248 249 246 247 245 -14 17 13 127 130 129 128 357 358 356 359 360 142 143 139 137 144 140 -21 22 20 19 324 325 326 349 346 347 344 348 345 178 -31 33 29 32 166 167 165 174 171 170 169 172 168 173 -34 28 30 205 204 203 202 314 317 313 318 316 315 -44 43 49 48 47 45 46 -54 350 323 322 321 291 292 290 -55 209 211 212 210 213 147 145 150 146 151 148 149 302 303 307 304 301 300 305 306 -56 57 53 58 194 196 193 195 84 83 86 82 85 266 267 265 264 -66 60 65 63 61 62 59 64 255 254 252 251 253 -75 79 78 76 81 74 77 80 222 221 219 224 220 223 18 15 16 337 338 339 336 353 354 355 -97 96 95 92 89 88 87 93 90 91 242 237 236 243 241 238 239 240 -99 94 98 26 25 27 23 24 132 134 131 135 136 133 -105 106 107 364 362 363 365 361 187 191 188 190 189 192 -124 125 118 119 126 120 121 122 123 256 258 261 263 260 259 257 262 372 374 373 -155 153 154 152 112 110 111 109 113 114 108 206 208 207 -161 159 162 157 158 156 160 183 185 186 184 164 163 -199 200 198 197 201 343 176 175 177 216 214 218 217 -215 285 289 282 286 288 284 287 281 272 273 271 274 -227 225 229 228 226 115 116 117 40 38 39 35 36 37 230 232 233 235 234 231 -283 70 69 71 72 67 68 73 382 377 375 376 380 381 378 379 -293 297 299 138 141 180 182 181 179 329 327 328 -295 298 294 296 52 50 51 279 275 277 276 278 280 351 352 -319 320 308 312 309 311 310 366 367 371 370 369 368 -332 334 330 335 331 333 41 42 342 340 341 0 





OBJ=
2234.229
BEST_KNOWN=
0.000